c Reduced graph for GEOM70_1 generated by Cyril Grelier
p edge 68 264
e 1 2
e 1 3
e 1 4
e 1 5
e 1 7
e 1 10
e 1 11
e 1 12
e 1 13
e 1 15
e 1 16
e 1 20
e 1 57
e 2 3
e 2 4
e 2 5
e 2 7
e 2 10
e 2 13
e 2 15
e 2 16
e 2 20
e 2 22
e 2 29
e 3 4
e 3 5
e 3 6
e 3 10
e 3 16
e 3 19
e 3 20
e 3 29
e 3 43
e 3 56
e 4 5
e 4 6
e 4 10
e 4 16
e 4 19
e 4 20
e 4 29
e 4 66
e 5 6
e 5 7
e 5 10
e 5 16
e 5 20
e 5 22
e 5 29
e 6 8
e 6 9
e 6 10
e 6 16
e 6 18
e 6 19
e 6 29
e 6 66
e 7 10
e 7 11
e 7 12
e 7 13
e 7 15
e 7 21
e 7 22
e 7 57
e 8 9
e 8 17
e 8 18
e 8 19
e 8 24
e 8 26
e 8 27
e 8 31
e 8 33
e 8 36
e 9 17
e 9 18
e 9 19
e 9 24
e 9 27
e 9 31
e 9 33
e 9 36
e 9 42
e 10 16
e 10 20
e 10 43
e 10 56
e 11 12
e 11 13
e 11 15
e 11 21
e 11 22
e 11 38
e 11 41
e 11 48
e 11 57
e 12 21
e 12 38
e 12 41
e 12 50
e 12 57
e 12 60
e 12 61
e 13 15
e 13 21
e 13 22
e 13 29
e 13 48
e 13 62
e 14 23
e 14 25
e 14 28
e 14 32
e 14 34
e 14 39
e 14 40
e 14 45
e 14 53
e 14 58
e 15 21
e 15 22
e 15 48
e 15 57
e 15 62
e 16 20
e 16 43
e 16 56
e 17 18
e 17 19
e 17 24
e 17 26
e 17 27
e 17 31
e 17 33
e 17 36
e 18 19
e 18 24
e 18 42
e 18 51
e 18 67
e 19 42
e 19 51
e 20 43
e 20 56
e 21 38
e 21 41
e 21 50
e 21 57
e 22 29
e 22 48
e 22 62
e 23 28
e 23 32
e 23 34
e 23 35
e 23 39
e 23 64
e 23 68
e 24 27
e 24 31
e 24 42
e 24 67
e 25 40
e 25 45
e 25 52
e 25 53
e 25 58
e 25 63
e 25 65
e 26 27
e 26 31
e 26 33
e 26 36
e 26 54
e 26 66
e 27 31
e 27 33
e 27 36
e 28 32
e 28 34
e 28 35
e 28 39
e 28 53
e 28 58
e 29 66
e 30 37
e 30 44
e 30 46
e 30 47
e 30 49
e 30 52
e 30 55
e 30 59
e 31 33
e 31 36
e 32 34
e 32 35
e 32 39
e 32 64
e 32 68
e 33 36
e 33 54
e 34 35
e 34 39
e 34 40
e 35 39
e 35 64
e 35 68
e 37 44
e 37 46
e 37 47
e 37 49
e 37 55
e 37 59
e 38 41
e 38 50
e 38 60
e 38 61
e 39 40
e 40 45
e 40 48
e 40 62
e 41 50
e 41 60
e 41 61
e 42 43
e 42 51
e 42 67
e 43 51
e 43 56
e 44 46
e 44 47
e 44 49
e 44 54
e 44 55
e 45 53
e 45 58
e 45 63
e 45 65
e 46 47
e 46 52
e 46 55
e 46 59
e 47 49
e 47 55
e 47 59
e 48 62
e 49 54
e 49 63
e 50 60
e 50 61
e 51 56
e 51 67
e 52 53
e 52 58
e 52 59
e 53 58
e 54 63
e 54 65
e 55 59
e 60 61
e 63 65
e 64 68
